p cnf 670 2286
1 -2 3 0
-4 5 0
-1 6 0
7 8 0
-9 10 0
-1 5 0
11 8 0
7 12 0
13 14 0
-15 14 0
-16 17 0
13 -18 -14 -19 -17 -10 0
-15 -18 -14 -19 -17 -10 0
11 12 0
13 19 0
15 19 0
2 19 0
2 14 0
13 18 0
15 18 0
-20 8 0
-21 18 0
4 15 -11 0
4 -15 11 0
3 22 0
23 -18 -14 -19 -17 -10 0
-2 -8 -22 -12 -5 -6 0
3 12 0
-16 10 0
7 -8 -22 -12 -5 -6 0
7 6 0
24 0
25 17 0
7 22 0
-11 22 0
-26 0
-27 0
-28 0
29 5 0
16 -30 2 0
9 23 -15 0
13 10 0
31 5 0
-32 0
7 33 0
-34 35 36 37 0
7 38 0
7 39 0
7 40 0
7 -40 -39 -38 -37 -33 0
41 0
42 -3 43 0
44 11 -45 0
44 -11 45 0
46 47 0
-44 47 0
-42 47 0
48 49 0
50 49 0
-44 49 0
-42 49 0
45 51 0
43 51 0
43 52 0
45 53 0
-54 53 0
46 -53 -52 -51 -49 -47 0
-55 -53 -52 -51 -49 -47 0
11 -53 -52 -51 -49 -47 0
-3 -53 -52 -51 -49 -47 0
56 -53 -52 -51 -49 -47 0
46 57 0
55 57 0
48 58 0
-59 60 61 58 0
59 62 0
60 62 0
-59 63 0
60 63 0
59 64 0
65 64 0
46 -64 -63 -62 -58 -57 0
34 -64 -63 -62 -58 -57 0
-35 -64 -63 -62 -58 -57 0
66 -64 -63 -62 -58 -57 0
67 0
68 -43 27 0
69 -45 26 0
-70 71 0
72 71 0
-69 71 0
-68 71 0
70 73 0
-69 73 0
-68 73 0
26 74 0
27 75 0
-70 -75 -74 -73 -71 0
-72 -75 -74 -73 -71 0
45 -75 -74 -73 -71 0
-43 -75 -74 -73 -71 0
76 -75 -74 -73 -71 0
77 -60 32 0
78 -59 28 0
-70 79 0
72 79 0
80 79 0
70 81 0
-78 81 0
-77 81 0
28 82 0
32 83 0
-70 -83 -82 -81 -79 0
-72 -83 -82 -81 -79 0
59 -83 -82 -81 -79 0
-60 -83 -82 -81 -79 0
80 -83 -82 -81 -79 0
27 84 0
-45 85 0
43 85 0
-23 -15 -11 -85 -84 0
-23 2 3 -85 -84 0
30 2 3 -85 -84 0
86 0
87 0
88 0
89 0
90 0
91 0
92 0
93 0
94 0
95 0
96 0
97 0
98 0
99 0
100 0
101 0
102 0
103 0
104 0
105 0
106 0
107 0
108 0
109 0
110 0
111 0
112 0
113 0
114 0
115 0
116 0
117 0
118 0
119 0
120 0
121 0
122 0
123 0
124 0
125 0
126 0
127 0
128 0
129 0
130 0
131 0
132 0
133 0
134 0
135 0
136 0
137 0
138 0
139 0
140 0
141 0
142 0
143 0
144 0
145 0
146 0
147 0
148 0
149 0
150 0
151 0
152 0
153 0
154 0
155 0
156 0
157 0
158 0
159 0
160 0
161 0
162 0
163 0
164 0
165 0
166 0
167 0
168 0
169 0
170 0
171 0
172 0
173 0
174 0
175 0
176 0
177 0
178 0
179 0
180 0
181 0
182 0
183 0
184 0
185 0
186 0
187 0
188 0
189 0
190 0
191 0
192 0
193 0
194 0
195 0
196 0
197 0
198 0
199 0
200 0
201 0
202 0
203 0
204 0
205 0
206 0
207 0
208 0
177 209 0
68 209 0
-71 209 0
-177 -68 71 -209 0
68 210 0
-71 210 0
-68 71 -210 0
177 211 0
-210 211 0
-177 210 -211 0
-211 209 0
211 -209 0
186 212 0
43 212 0
75 212 0
74 212 0
73 212 0
71 212 0
-186 -43 -75 -74 -73 -71 -212 0
43 213 0
75 213 0
74 213 0
73 213 0
71 213 0
-43 -75 -74 -73 -71 -213 0
186 214 0
-213 214 0
-186 213 -214 0
-214 212 0
214 -212 0
215 216 0
-215 -216 0
-216 217 0
61 217 0
216 -61 -217 0
-217 218 0
-20 218 0
217 20 -218 0
-218 219 0
220 219 0
218 -220 -219 0
219 -221 0
-80 215 0
202 222 0
-80 222 0
83 222 0
82 222 0
81 222 0
79 222 0
-202 80 -83 -82 -81 -79 -222 0
-80 223 0
83 223 0
82 223 0
81 223 0
79 223 0
80 -83 -82 -81 -79 -223 0
202 224 0
-223 224 0
-202 223 -224 0
-224 222 0
224 -222 0
191 225 0
-72 225 0
-79 225 0
-191 72 79 -225 0
-72 226 0
-79 226 0
72 79 -226 0
191 227 0
-226 227 0
-191 226 -227 0
-227 225 0
227 -225 0
184 228 0
72 228 0
75 228 0
74 228 0
73 228 0
71 228 0
-184 -72 -75 -74 -73 -71 -228 0
72 229 0
75 229 0
74 229 0
73 229 0
71 229 0
-72 -75 -74 -73 -71 -229 0
184 230 0
-229 230 0
-184 229 -230 0
-230 228 0
230 -228 0
176 231 0
69 231 0
-71 231 0
-176 -69 71 -231 0
69 232 0
-71 232 0
-69 71 -232 0
176 233 0
-232 233 0
-176 232 -233 0
-233 231 0
233 -231 0
173 234 0
-69 234 0
45 234 0
-26 234 0
-173 69 -45 26 -234 0
-69 235 0
45 235 0
-26 235 0
69 -45 26 -235 0
173 236 0
-235 236 0
-173 235 -236 0
-236 234 0
236 -234 0
88 237 0
1 237 0
-6 237 0
-88 -1 6 -237 0
1 238 0
-6 238 0
-1 6 -238 0
88 239 0
-238 239 0
-88 238 -239 0
-239 237 0
239 -237 0
112 240 0
2 240 0
8 240 0
22 240 0
12 240 0
5 240 0
6 240 0
-112 -2 -8 -22 -12 -5 -6 -240 0
2 241 0
8 241 0
22 241 0
12 241 0
5 241 0
6 241 0
-2 -8 -22 -12 -5 -6 -241 0
112 242 0
-241 242 0
-112 241 -242 0
-242 240 0
242 -240 0
125 243 0
-16 243 0
30 243 0
-2 243 0
-125 16 -30 2 -243 0
-16 244 0
30 244 0
-2 244 0
16 -30 2 -244 0
125 245 0
-244 245 0
-125 244 -245 0
-245 243 0
245 -243 0
208 246 0
-30 246 0
-2 246 0
-3 246 0
85 246 0
84 246 0
-208 30 2 3 -85 -84 -246 0
-30 247 0
-2 247 0
-3 247 0
85 247 0
84 247 0
30 2 3 -85 -84 -247 0
208 248 0
-247 248 0
-208 247 -248 0
-248 246 0
248 -246 0
96 249 0
16 249 0
-17 249 0
-96 -16 17 -249 0
16 250 0
-17 250 0
-16 17 -250 0
96 251 0
-250 251 0
-96 250 -251 0
-251 249 0
251 -249 0
97 252 0
-13 252 0
18 252 0
14 252 0
19 252 0
17 252 0
10 252 0
-97 13 -18 -14 -19 -17 -10 -252 0
-13 253 0
18 253 0
14 253 0
19 253 0
17 253 0
10 253 0
13 -18 -14 -19 -17 -10 -253 0
97 254 0
-253 254 0
-97 253 -254 0
-254 252 0
254 -252 0
127 255 0
-13 255 0
-10 255 0
-127 13 10 -255 0
-13 256 0
-10 256 0
13 10 -256 0
127 257 0
-256 257 0
-127 256 -257 0
-257 255 0
257 -255 0
-65 258 0
-259 -258 0
-80 259 0
192 260 0
-80 260 0
-79 260 0
-192 80 79 -260 0
-80 261 0
-79 261 0
80 79 -261 0
192 262 0
-261 262 0
-192 261 -262 0
-262 260 0
262 -260 0
199 263 0
72 263 0
83 263 0
82 263 0
81 263 0
79 263 0
-199 -72 -83 -82 -81 -79 -263 0
72 264 0
83 264 0
82 264 0
81 264 0
79 264 0
-72 -83 -82 -81 -79 -264 0
199 265 0
-264 265 0
-199 264 -265 0
-265 263 0
265 -263 0
193 266 0
-70 266 0
-81 266 0
-193 70 81 -266 0
-70 267 0
-81 267 0
70 81 -267 0
193 268 0
-267 268 0
-193 267 -268 0
-268 266 0
268 -266 0
174 269 0
70 269 0
-71 269 0
-174 -70 71 -269 0
70 270 0
-71 270 0
-70 71 -270 0
174 271 0
-270 271 0
-174 270 -271 0
-271 269 0
271 -269 0
185 272 0
-45 272 0
75 272 0
74 272 0
73 272 0
71 272 0
-185 45 -75 -74 -73 -71 -272 0
-45 273 0
75 273 0
74 273 0
73 273 0
71 273 0
45 -75 -74 -73 -71 -273 0
185 274 0
-273 274 0
-185 273 -274 0
-274 272 0
274 -272 0
175 275 0
-72 275 0
-71 275 0
-175 72 71 -275 0
-72 276 0
-71 276 0
72 71 -276 0
175 277 0
-276 277 0
-175 276 -277 0
-277 275 0
277 -275 0
-278 65 -279 0
-278 -65 279 0
278 -65 -279 0
278 65 279 0
-280 -65 279 0
-280 65 -279 0
280 65 279 0
280 -65 -279 0
280 -278 0
-281 282 -279 0
-281 -282 279 0
281 -282 -279 0
281 282 279 0
-283 65 -282 0
-283 -65 282 0
283 -65 -282 0
283 65 282 0
-278 284 0
283 284 0
278 -283 -284 0
284 -281 0
-283 285 0
80 285 0
283 -80 -285 0
285 -286 0
-287 286 0
287 -286 0
70 287 0
-282 279 0
282 -279 0
-288 279 -13 0
-288 -279 13 0
288 -279 -13 0
288 279 13 0
-289 -279 13 0
-289 279 -13 0
289 279 13 0
289 -279 -13 0
289 -288 0
-290 291 -13 0
-290 -291 13 0
290 -291 -13 0
290 291 13 0
-292 279 -291 0
-292 -279 291 0
292 -279 -291 0
292 279 291 0
-288 293 0
292 293 0
288 -292 -293 0
293 -290 0
-294 291 -279 0
-294 -291 279 0
294 -291 -279 0
294 291 279 0
-294 292 0
294 -292 0
294 -295 0
-295 296 0
297 296 0
295 -297 -296 0
296 -286 0
31 297 0
-298 279 -31 0
-298 -279 31 0
298 -279 -31 0
298 279 31 0
-299 -279 31 0
-299 279 -31 0
299 279 31 0
299 -279 -31 0
299 -298 0
-300 301 -31 0
-300 -301 31 0
300 -301 -31 0
300 301 31 0
-302 279 -301 0
-302 -279 301 0
302 -279 -301 0
302 279 301 0
-298 303 0
302 303 0
298 -302 -303 0
303 -300 0
-304 301 -279 0
-304 -301 279 0
304 -301 -279 0
304 301 279 0
-304 302 0
304 -302 0
-305 301 -282 0
-305 -301 282 0
305 -301 -282 0
305 301 282 0
-304 306 0
305 306 0
304 -305 -306 0
306 -281 0
-305 307 0
308 307 0
305 -308 -307 0
307 -286 0
-48 308 0
-309 287 -48 0
-309 -287 48 0
309 -287 -48 0
309 287 48 0
-310 48 -287 0
-310 -48 287 0
310 -48 -287 0
310 48 287 0
-310 309 0
310 -309 0
310 -67 0
-311 31 -301 0
-311 -31 301 0
311 -31 -301 0
311 31 301 0
-311 300 0
311 -300 0
311 -41 0
-312 13 -291 0
-312 -13 291 0
312 -13 -291 0
312 13 291 0
-312 290 0
312 -290 0
312 -24 0
100 313 0
-13 313 0
-19 313 0
-100 13 19 -313 0
-13 314 0
-19 314 0
13 19 -314 0
100 315 0
-314 315 0
-100 314 -315 0
-315 313 0
315 -313 0
94 316 0
-13 316 0
-14 316 0
-94 13 14 -316 0
-13 317 0
-14 317 0
13 14 -317 0
94 318 0
-317 318 0
-94 317 -318 0
-318 316 0
318 -316 0
104 319 0
-13 319 0
-18 319 0
-104 13 18 -319 0
-13 320 0
-18 320 0
13 18 -320 0
104 321 0
-320 321 0
-104 320 -321 0
-321 319 0
321 -319 0
137 322 0
-42 322 0
3 322 0
-43 322 0
-137 42 -3 43 -322 0
-42 323 0
3 323 0
-43 323 0
42 -3 43 -323 0
137 324 0
-323 324 0
-137 323 -324 0
-324 322 0
324 -322 0
146 325 0
42 325 0
-49 325 0
-146 -42 49 -325 0
42 326 0
-49 326 0
-42 49 -326 0
146 327 0
-326 327 0
-146 326 -327 0
-327 325 0
327 -325 0
152 328 0
-46 328 0
53 328 0
52 328 0
51 328 0
49 328 0
47 328 0
-152 46 -53 -52 -51 -49 -47 -328 0
-46 329 0
53 329 0
52 329 0
51 329 0
49 329 0
47 329 0
46 -53 -52 -51 -49 -47 -329 0
152 330 0
-329 330 0
-152 329 -330 0
-330 328 0
330 -328 0
140 331 0
-46 331 0
-47 331 0
-140 46 47 -331 0
-46 332 0
-47 332 0
46 47 -332 0
140 333 0
-332 333 0
-140 332 -333 0
-333 331 0
333 -331 0
-334 65 -46 0
-334 -65 46 0
334 -65 -46 0
334 65 46 0
-335 -65 46 0
-335 65 -46 0
335 65 46 0
335 -65 -46 0
335 -334 0
-336 279 -46 0
-336 -279 46 0
336 -279 -46 0
336 279 46 0
-334 337 0
278 337 0
334 -278 -337 0
337 -336 0
-338 46 -279 0
-338 -46 279 0
338 -46 -279 0
338 46 279 0
-338 336 0
338 -336 0
338 -67 0
150 339 0
-45 339 0
-53 339 0
-150 45 53 -339 0
-45 340 0
-53 340 0
45 53 -340 0
150 341 0
-340 341 0
-150 340 -341 0
-341 339 0
341 -339 0
128 342 0
-31 342 0
-5 342 0
-128 31 5 -342 0
-31 343 0
-5 343 0
31 5 -343 0
128 344 0
-343 344 0
-128 343 -344 0
-344 342 0
344 -342 0
99 345 0
-11 345 0
-12 345 0
-99 11 12 -345 0
-11 346 0
-12 346 0
11 12 -346 0
99 347 0
-346 347 0
-99 346 -347 0
-347 345 0
347 -345 0
139 348 0
-44 348 0
11 348 0
-45 348 0
-139 44 -11 45 -348 0
-44 349 0
11 349 0
-45 349 0
44 -11 45 -349 0
139 350 0
-349 350 0
-139 349 -350 0
-350 348 0
350 -348 0
145 351 0
44 351 0
-49 351 0
-145 -44 49 -351 0
44 352 0
-49 352 0
-44 49 -352 0
145 353 0
-352 353 0
-145 352 -353 0
-353 351 0
353 -351 0
110 354 0
-3 354 0
-22 354 0
-110 3 22 -354 0
-3 355 0
-22 355 0
3 22 -355 0
110 356 0
-355 356 0
-110 355 -356 0
-356 354 0
356 -354 0
92 357 0
-11 357 0
-8 357 0
-92 11 8 -357 0
-11 358 0
-8 358 0
11 8 -358 0
92 359 0
-358 359 0
-92 358 -359 0
-359 357 0
359 -357 0
86 360 0
-1 360 0
2 360 0
-3 360 0
-86 1 -2 3 -360 0
-1 361 0
2 361 0
-3 361 0
1 -2 3 -361 0
86 362 0
-361 362 0
-86 361 -362 0
-362 360 0
362 -360 0
148 363 0
-43 363 0
-51 363 0
-148 43 51 -363 0
-43 364 0
-51 364 0
43 51 -364 0
148 365 0
-364 365 0
-148 364 -365 0
-365 363 0
365 -363 0
149 366 0
-43 366 0
-52 366 0
-149 43 52 -366 0
-43 367 0
-52 367 0
43 52 -367 0
149 368 0
-367 368 0
-149 367 -368 0
-368 366 0
368 -366 0
183 369 0
70 369 0
75 369 0
74 369 0
73 369 0
71 369 0
-183 -70 -75 -74 -73 -71 -369 0
70 370 0
75 370 0
74 370 0
73 370 0
71 370 0
-70 -75 -74 -73 -71 -370 0
183 371 0
-370 371 0
-183 370 -371 0
-371 369 0
371 -369 0
160 372 0
59 372 0
-60 372 0
-61 372 0
-58 372 0
-160 -59 60 61 58 -372 0
59 373 0
-60 373 0
-61 373 0
-58 373 0
-59 60 61 58 -373 0
160 374 0
-373 374 0
-160 373 -374 0
-374 372 0
374 -372 0
167 375 0
-46 375 0
64 375 0
63 375 0
62 375 0
58 375 0
57 375 0
-167 46 -64 -63 -62 -58 -57 -375 0
-46 376 0
64 376 0
63 376 0
62 376 0
58 376 0
57 376 0
46 -64 -63 -62 -58 -57 -376 0
167 377 0
-376 377 0
-167 376 -377 0
-377 375 0
377 -375 0
157 378 0
-46 378 0
-57 378 0
-157 46 57 -378 0
-46 379 0
-57 379 0
46 57 -379 0
157 380 0
-379 380 0
-157 379 -380 0
-380 378 0
380 -378 0
162 381 0
-60 381 0
-62 381 0
-162 60 62 -381 0
-60 382 0
-62 382 0
60 62 -382 0
162 383 0
-382 383 0
-162 382 -383 0
-383 381 0
383 -381 0
201 384 0
60 384 0
83 384 0
82 384 0
81 384 0
79 384 0
-201 -60 -83 -82 -81 -79 -384 0
60 385 0
83 385 0
82 385 0
81 385 0
79 385 0
-60 -83 -82 -81 -79 -385 0
201 386 0
-385 386 0
-201 385 -386 0
-386 384 0
386 -384 0
163 387 0
59 387 0
-63 387 0
-163 -59 63 -387 0
59 388 0
-63 388 0
-59 63 -388 0
163 389 0
-388 389 0
-163 388 -389 0
-389 387 0
389 -387 0
200 390 0
-59 390 0
83 390 0
82 390 0
81 390 0
79 390 0
-200 59 -83 -82 -81 -79 -390 0
-59 391 0
83 391 0
82 391 0
81 391 0
79 391 0
59 -83 -82 -81 -79 -391 0
200 392 0
-391 392 0
-200 391 -392 0
-392 390 0
392 -390 0
166 393 0
-65 393 0
-64 393 0
-166 65 64 -393 0
-65 394 0
-64 394 0
65 64 -394 0
166 395 0
-394 395 0
-166 394 -395 0
-395 393 0
395 -393 0
106 396 0
20 396 0
-8 396 0
-106 -20 8 -396 0
20 397 0
-8 397 0
-20 8 -397 0
106 398 0
-397 398 0
-106 397 -398 0
-398 396 0
398 -396 0
151 399 0
54 399 0
-53 399 0
-151 -54 53 -399 0
54 400 0
-53 400 0
-54 53 -400 0
151 401 0
-400 401 0
-151 400 -401 0
-401 399 0
401 -399 0
-221 54 0
-76 221 0
187 402 0
-76 402 0
75 402 0
74 402 0
73 402 0
71 402 0
-187 76 -75 -74 -73 -71 -402 0
-76 403 0
75 403 0
74 403 0
73 403 0
71 403 0
76 -75 -74 -73 -71 -403 0
187 404 0
-403 404 0
-187 403 -404 0
-404 402 0
404 -402 0
113 405 0
-3 405 0
-12 405 0
-113 3 12 -405 0
-3 406 0
-12 406 0
3 12 -406 0
113 407 0
-406 407 0
-113 406 -407 0
-407 405 0
407 -405 0
120 408 0
11 408 0
-22 408 0
-120 -11 22 -408 0
11 409 0
-22 409 0
-11 22 -409 0
120 410 0
-409 410 0
-120 409 -410 0
-410 408 0
410 -408 0
138 411 0
-44 411 0
-11 411 0
45 411 0
-138 44 11 -45 -411 0
-44 412 0
-11 412 0
45 412 0
44 11 -45 -412 0
138 413 0
-412 413 0
-138 412 -413 0
-413 411 0
413 -411 0
-414 220 0
144 415 0
-414 415 0
-49 415 0
-144 414 49 -415 0
-416 417 0
-49 417 0
416 49 -417 0
144 418 0
-417 418 0
-144 417 -418 0
-419 418 -415 0
-419 -418 415 0
419 -418 -415 0
419 418 415 0
-50 420 0
-49 420 0
50 49 -420 0
144 421 0
-420 421 0
-144 420 -421 0
-422 421 -418 0
-422 -421 418 0
422 -421 -418 0
422 421 418 0
-423 421 -415 0
-423 -421 415 0
423 -421 -415 0
423 421 415 0
-423 424 0
422 424 0
423 -422 -424 0
424 -419 0
-425 420 -417 0
-425 -420 417 0
425 -420 -417 0
425 420 417 0
422 -425 0
-426 50 -416 0
-426 -50 416 0
426 -50 -416 0
426 50 416 0
425 -426 0
426 -427 0
427 0
-414 428 0
-49 428 0
414 49 -428 0
144 429 0
-428 429 0
-144 428 -429 0
-430 429 -415 0
-430 -429 415 0
430 -429 -415 0
430 429 415 0
-431 418 -429 0
-431 -418 429 0
431 -418 -429 0
431 418 429 0
-419 432 0
431 432 0
419 -431 -432 0
432 -430 0
-433 417 -428 0
-433 -417 428 0
433 -417 -428 0
433 417 428 0
431 -433 0
-434 416 -414 0
-434 -416 414 0
434 -416 -414 0
434 416 414 0
433 -434 0
-416 414 0
416 -414 0
-429 415 0
429 -415 0
203 435 0
-27 435 0
-84 435 0
-203 27 84 -435 0
-27 436 0
-84 436 0
27 84 -436 0
203 437 0
-436 437 0
-203 436 -437 0
-437 435 0
437 -435 0
180 438 0
68 438 0
-73 438 0
-180 -68 73 -438 0
68 439 0
-73 439 0
-68 73 -439 0
180 440 0
-439 440 0
-180 439 -440 0
-440 438 0
440 -438 0
172 441 0
-68 441 0
43 441 0
-27 441 0
-172 68 -43 27 -441 0
-68 442 0
43 442 0
-27 442 0
68 -43 27 -442 0
172 443 0
-442 443 0
-172 442 -443 0
-443 441 0
443 -441 0
205 444 0
-43 444 0
-85 444 0
-205 43 85 -444 0
-43 445 0
-85 445 0
43 85 -445 0
205 446 0
-445 446 0
-205 445 -446 0
-446 444 0
446 -444 0
204 447 0
45 447 0
-85 447 0
-204 -45 85 -447 0
45 448 0
-85 448 0
-45 85 -448 0
204 449 0
-448 449 0
-204 448 -449 0
-449 447 0
449 -447 0
181 450 0
-26 450 0
-74 450 0
-181 26 74 -450 0
-26 451 0
-74 451 0
26 74 -451 0
181 452 0
-451 452 0
-181 451 -452 0
-452 450 0
452 -450 0
182 453 0
-27 453 0
-75 453 0
-182 27 75 -453 0
-27 454 0
-75 454 0
27 75 -454 0
182 455 0
-454 455 0
-182 454 -455 0
-455 453 0
455 -453 0
196 456 0
-28 456 0
-82 456 0
-196 28 82 -456 0
-28 457 0
-82 457 0
28 82 -457 0
196 458 0
-457 458 0
-196 457 -458 0
-458 456 0
458 -456 0
197 459 0
-32 459 0
-83 459 0
-197 32 83 -459 0
-32 460 0
-83 460 0
32 83 -460 0
197 461 0
-460 461 0
-197 460 -461 0
-461 459 0
461 -459 0
462 463 0
-462 -463 0
-463 464 0
-21 464 0
463 21 -464 0
-464 465 0
466 465 0
464 -466 -465 0
-465 467 0
468 467 0
465 -468 -467 0
467 -36 0
-66 462 0
170 469 0
-66 469 0
64 469 0
63 469 0
62 469 0
58 469 0
57 469 0
-170 66 -64 -63 -62 -58 -57 -469 0
-66 470 0
64 470 0
63 470 0
62 470 0
58 470 0
57 470 0
66 -64 -63 -62 -58 -57 -470 0
170 471 0
-470 471 0
-170 470 -471 0
-471 469 0
471 -469 0
158 472 0
-55 472 0
-57 472 0
-158 55 57 -472 0
-55 473 0
-57 473 0
55 57 -473 0
158 474 0
-473 474 0
-158 473 -474 0
-474 472 0
474 -472 0
153 475 0
55 475 0
53 475 0
52 475 0
51 475 0
49 475 0
47 475 0
-153 -55 -53 -52 -51 -49 -47 -475 0
55 476 0
53 476 0
52 476 0
51 476 0
49 476 0
47 476 0
-55 -53 -52 -51 -49 -47 -476 0
153 477 0
-476 477 0
-153 476 -477 0
-477 475 0
477 -475 0
114 478 0
16 478 0
-10 478 0
-114 -16 10 -478 0
16 479 0
-10 479 0
-16 10 -479 0
114 480 0
-479 480 0
-114 479 -480 0
-480 478 0
480 -478 0
142 481 0
42 481 0
-47 481 0
-142 -42 47 -481 0
42 482 0
-47 482 0
-42 47 -482 0
142 483 0
-482 483 0
-142 482 -483 0
-483 481 0
483 -481 0
111 484 0
-23 484 0
18 484 0
14 484 0
19 484 0
17 484 0
10 484 0
-111 23 -18 -14 -19 -17 -10 -484 0
-23 485 0
18 485 0
14 485 0
19 485 0
17 485 0
10 485 0
23 -18 -14 -19 -17 -10 -485 0
111 486 0
-485 486 0
-111 485 -486 0
-486 484 0
486 -484 0
207 487 0
23 487 0
-2 487 0
-3 487 0
85 487 0
84 487 0
-207 -23 2 3 -85 -84 -487 0
23 488 0
-2 488 0
-3 488 0
85 488 0
84 488 0
-23 2 3 -85 -84 -488 0
207 489 0
-488 489 0
-207 488 -489 0
-489 487 0
489 -487 0
101 490 0
-15 490 0
-19 490 0
-101 15 19 -490 0
-15 491 0
-19 491 0
15 19 -491 0
101 492 0
-491 492 0
-101 491 -492 0
-492 490 0
492 -490 0
109 493 0
-4 493 0
15 493 0
-11 493 0
-109 4 -15 11 -493 0
-4 494 0
15 494 0
-11 494 0
4 -15 11 -494 0
109 495 0
-494 495 0
-109 494 -495 0
-495 493 0
495 -493 0
141 496 0
44 496 0
-47 496 0
-141 -44 47 -496 0
44 497 0
-47 497 0
-44 47 -497 0
141 498 0
-497 498 0
-141 497 -498 0
-498 496 0
498 -496 0
103 499 0
-2 499 0
-14 499 0
-103 2 14 -499 0
-2 500 0
-14 500 0
2 14 -500 0
103 501 0
-500 501 0
-103 500 -501 0
-501 499 0
501 -499 0
105 502 0
-15 502 0
-18 502 0
-105 15 18 -502 0
-15 503 0
-18 503 0
15 18 -503 0
105 504 0
-503 504 0
-105 503 -504 0
-504 502 0
504 -502 0
118 505 0
-25 505 0
-17 505 0
-118 25 17 -505 0
-25 506 0
-17 506 0
25 17 -506 0
118 507 0
-506 507 0
-118 506 -507 0
-507 505 0
507 -505 0
-48 508 0
-509 -508 0
-46 509 0
-70 279 0
178 510 0
-70 510 0
-73 510 0
-178 70 73 -510 0
-70 511 0
-73 511 0
70 73 -511 0
178 512 0
-511 512 0
-178 511 -512 0
-512 510 0
512 -510 0
-513 -48 287 0
-513 48 -287 0
513 48 287 0
513 -48 -287 0
513 -310 0
-514 287 -25 0
-514 -287 25 0
514 -287 -25 0
514 287 25 0
-515 -287 25 0
-515 287 -25 0
515 287 25 0
515 -287 -25 0
515 -514 0
-516 297 -25 0
-516 -297 25 0
516 -297 -25 0
516 297 25 0
-517 287 -297 0
-517 -287 297 0
517 -287 -297 0
517 287 297 0
-514 518 0
517 518 0
514 -517 -518 0
518 -516 0
-519 297 -287 0
-519 -297 287 0
519 -297 -287 0
519 297 287 0
-519 517 0
519 -517 0
519 -295 0
-295 520 0
291 520 0
295 -291 -520 0
520 -282 0
-31 291 0
48 301 0
-279 282 0
279 -282 0
-521 25 -297 0
-521 -25 297 0
521 -25 -297 0
521 25 297 0
-521 516 0
521 -516 0
521 -24 0
91 522 0
1 522 0
-5 522 0
-91 -1 5 -522 0
1 523 0
-5 523 0
-1 5 -523 0
91 524 0
-523 524 0
-91 523 -524 0
-524 522 0
524 -522 0
115 525 0
-7 525 0
8 525 0
22 525 0
12 525 0
5 525 0
6 525 0
-115 7 -8 -22 -12 -5 -6 -525 0
-7 526 0
8 526 0
22 526 0
12 526 0
5 526 0
6 526 0
7 -8 -22 -12 -5 -6 -526 0
115 527 0
-526 527 0
-115 526 -527 0
-527 525 0
527 -525 0
116 528 0
-7 528 0
-6 528 0
-116 7 6 -528 0
-7 529 0
-6 529 0
7 6 -529 0
116 530 0
-529 530 0
-116 529 -530 0
-530 528 0
530 -528 0
-531 287 -7 0
-531 -287 7 0
531 -287 -7 0
531 287 7 0
-532 -287 7 0
-532 287 -7 0
532 287 7 0
532 -287 -7 0
532 -531 0
-533 308 -7 0
-533 -308 7 0
533 -308 -7 0
533 308 7 0
-534 287 -308 0
-534 -287 308 0
534 -287 -308 0
534 287 308 0
-531 535 0
534 535 0
531 -534 -535 0
535 -533 0
-536 308 -287 0
-536 -308 287 0
536 -308 -287 0
536 308 287 0
-536 534 0
536 -534 0
-537 286 -287 0
-537 -286 287 0
537 -286 -287 0
537 286 287 0
-538 308 -286 0
-538 -308 286 0
538 -308 -286 0
538 308 286 0
-536 539 0
538 539 0
536 -538 -539 0
539 -537 0
-538 540 0
301 540 0
538 -301 -540 0
540 -282 0
-286 287 0
286 -287 0
-541 7 -308 0
-541 -7 308 0
541 -7 -308 0
541 7 308 0
-541 533 0
541 -533 0
541 -41 0
93 542 0
-7 542 0
-12 542 0
-93 7 12 -542 0
-7 543 0
-12 543 0
7 12 -543 0
93 544 0
-543 544 0
-93 543 -544 0
-544 542 0
544 -542 0
119 545 0
-7 545 0
-22 545 0
-119 7 22 -545 0
-7 546 0
-22 546 0
7 22 -546 0
119 547 0
-546 547 0
-119 546 -547 0
-547 545 0
547 -545 0
89 548 0
-7 548 0
-8 548 0
-89 7 8 -548 0
-7 549 0
-8 549 0
7 8 -549 0
89 550 0
-549 550 0
-89 549 -550 0
-550 548 0
550 -548 0
87 551 0
4 551 0
-5 551 0
-87 -4 5 -551 0
4 552 0
-5 552 0
-4 5 -552 0
87 553 0
-552 553 0
-87 552 -553 0
-553 551 0
553 -551 0
179 554 0
69 554 0
-73 554 0
-179 -69 73 -554 0
69 555 0
-73 555 0
-69 73 -555 0
179 556 0
-555 556 0
-179 555 -556 0
-556 554 0
556 -554 0
143 557 0
-48 557 0
-49 557 0
-143 48 49 -557 0
-48 558 0
-49 558 0
48 49 -558 0
143 559 0
-558 559 0
-143 558 -559 0
-559 557 0
559 -557 0
147 560 0
-45 560 0
-51 560 0
-147 45 51 -560 0
-45 561 0
-51 561 0
45 51 -561 0
147 562 0
-561 562 0
-147 561 -562 0
-562 560 0
562 -560 0
161 563 0
-59 563 0
-62 563 0
-161 59 62 -563 0
-59 564 0
-62 564 0
59 62 -564 0
161 565 0
-564 565 0
-161 564 -565 0
-565 563 0
565 -563 0
189 566 0
-78 566 0
59 566 0
-28 566 0
-189 78 -59 28 -566 0
-78 567 0
59 567 0
-28 567 0
78 -59 28 -567 0
189 568 0
-567 568 0
-189 567 -568 0
-568 566 0
568 -566 0
194 569 0
78 569 0
-81 569 0
-194 -78 81 -569 0
78 570 0
-81 570 0
-78 81 -570 0
194 571 0
-570 571 0
-194 570 -571 0
-571 569 0
571 -569 0
198 572 0
70 572 0
83 572 0
82 572 0
81 572 0
79 572 0
-198 -70 -83 -82 -81 -79 -572 0
70 573 0
83 573 0
82 573 0
81 573 0
79 573 0
-70 -83 -82 -81 -79 -573 0
198 574 0
-573 574 0
-198 573 -574 0
-574 572 0
574 -572 0
190 575 0
70 575 0
-79 575 0
-190 -70 79 -575 0
70 576 0
-79 576 0
-70 79 -576 0
190 577 0
-576 577 0
-190 576 -577 0
-577 575 0
577 -575 0
164 578 0
-60 578 0
-63 578 0
-164 60 63 -578 0
-60 579 0
-63 579 0
60 63 -579 0
164 580 0
-579 580 0
-164 579 -580 0
-580 578 0
580 -578 0
188 581 0
-77 581 0
60 581 0
-32 581 0
-188 77 -60 32 -581 0
-77 582 0
60 582 0
-32 582 0
77 -60 32 -582 0
188 583 0
-582 583 0
-188 582 -583 0
-583 581 0
583 -581 0
195 584 0
77 584 0
-81 584 0
-195 -77 81 -584 0
77 585 0
-81 585 0
-77 81 -585 0
195 586 0
-585 586 0
-195 585 -586 0
-586 584 0
586 -584 0
159 587 0
-48 587 0
-58 587 0
-159 48 58 -587 0
-48 588 0
-58 588 0
48 58 -588 0
159 589 0
-588 589 0
-159 588 -589 0
-589 587 0
589 -587 0
165 590 0
-59 590 0
-64 590 0
-165 59 64 -590 0
-59 591 0
-64 591 0
59 64 -591 0
165 592 0
-591 592 0
-165 591 -592 0
-592 590 0
592 -590 0
107 593 0
21 593 0
-18 593 0
-107 -21 18 -593 0
21 594 0
-18 594 0
-21 18 -594 0
107 595 0
-594 595 0
-107 594 -595 0
-595 593 0
595 -593 0
98 596 0
15 596 0
18 596 0
14 596 0
19 596 0
17 596 0
10 596 0
-98 -15 -18 -14 -19 -17 -10 -596 0
15 597 0
18 597 0
14 597 0
19 597 0
17 597 0
10 597 0
-15 -18 -14 -19 -17 -10 -597 0
98 598 0
-597 598 0
-98 597 -598 0
-598 596 0
598 -596 0
90 599 0
9 599 0
-10 599 0
-90 -9 10 -599 0
9 600 0
-10 600 0
-9 10 -600 0
90 601 0
-600 601 0
-90 600 -601 0
-601 599 0
601 -599 0
126 602 0
-9 602 0
-23 602 0
15 602 0
-126 9 23 -15 -602 0
-9 603 0
-23 603 0
15 603 0
9 23 -15 -603 0
126 604 0
-603 604 0
-126 603 -604 0
-604 602 0
604 -602 0
108 605 0
-4 605 0
-15 605 0
11 605 0
-108 4 15 -11 -605 0
-4 606 0
-15 606 0
11 606 0
4 15 -11 -606 0
108 607 0
-606 607 0
-108 606 -607 0
-607 605 0
607 -605 0
154 608 0
-11 608 0
53 608 0
52 608 0
51 608 0
49 608 0
47 608 0
-154 11 -53 -52 -51 -49 -47 -608 0
-11 609 0
53 609 0
52 609 0
51 609 0
49 609 0
47 609 0
11 -53 -52 -51 -49 -47 -609 0
154 610 0
-609 610 0
-154 609 -610 0
-610 608 0
610 -608 0
206 611 0
23 611 0
15 611 0
11 611 0
85 611 0
84 611 0
-206 -23 -15 -11 -85 -84 -611 0
23 612 0
15 612 0
11 612 0
85 612 0
84 612 0
-23 -15 -11 -85 -84 -612 0
206 613 0
-612 613 0
-206 612 -613 0
-613 611 0
613 -611 0
95 614 0
15 614 0
-14 614 0
-95 -15 14 -614 0
15 615 0
-14 615 0
-15 14 -615 0
95 616 0
-615 616 0
-95 615 -616 0
-616 614 0
616 -614 0
102 617 0
-2 617 0
-19 617 0
-102 2 19 -617 0
-2 618 0
-19 618 0
2 19 -618 0
102 619 0
-618 619 0
-102 618 -619 0
-619 617 0
619 -617 0
155 620 0
3 620 0
53 620 0
52 620 0
51 620 0
49 620 0
47 620 0
-155 -3 -53 -52 -51 -49 -47 -620 0
3 621 0
53 621 0
52 621 0
51 621 0
49 621 0
47 621 0
-3 -53 -52 -51 -49 -47 -621 0
155 622 0
-621 622 0
-155 621 -622 0
-622 620 0
622 -620 0
-56 466 0
156 623 0
-56 623 0
53 623 0
52 623 0
51 623 0
49 623 0
47 623 0
-156 56 -53 -52 -51 -49 -47 -623 0
-56 624 0
53 624 0
52 624 0
51 624 0
49 624 0
47 624 0
56 -53 -52 -51 -49 -47 -624 0
156 625 0
-624 625 0
-156 624 -625 0
-625 623 0
625 -623 0
-626 468 0
124 627 0
-626 627 0
-5 627 0
-124 626 5 -627 0
-628 629 0
-5 629 0
628 5 -629 0
124 630 0
-629 630 0
-124 629 -630 0
-631 630 -627 0
-631 -630 627 0
631 -630 -627 0
631 630 627 0
-29 632 0
-5 632 0
29 5 -632 0
124 633 0
-632 633 0
-124 632 -633 0
-634 633 -630 0
-634 -633 630 0
634 -633 -630 0
634 633 630 0
-635 633 -627 0
-635 -633 627 0
635 -633 -627 0
635 633 627 0
-635 636 0
634 636 0
635 -634 -636 0
636 -631 0
-637 632 -629 0
-637 -632 629 0
637 -632 -629 0
637 632 629 0
634 -637 0
-638 29 -628 0
-638 -29 628 0
638 -29 -628 0
638 29 628 0
637 -638 0
638 -639 0
639 0
-626 640 0
-5 640 0
626 5 -640 0
124 641 0
-640 641 0
-124 640 -641 0
-642 641 -627 0
-642 -641 627 0
642 -641 -627 0
642 641 627 0
-643 630 -641 0
-643 -630 641 0
643 -630 -641 0
643 630 641 0
-631 644 0
643 644 0
631 -643 -644 0
644 -642 0
-645 629 -640 0
-645 -629 640 0
645 -629 -640 0
645 629 640 0
643 -645 0
-646 628 -626 0
-646 -628 626 0
646 -628 -626 0
646 628 626 0
645 -646 0
-628 626 0
628 -626 0
-641 627 0
641 -627 0
131 647 0
34 647 0
-35 647 0
-36 647 0
-37 647 0
-131 -34 35 36 37 -647 0
34 648 0
-35 648 0
-36 648 0
-37 648 0
-34 35 36 37 -648 0
131 649 0
-648 649 0
-131 648 -649 0
-649 647 0
649 -647 0
169 650 0
35 650 0
64 650 0
63 650 0
62 650 0
58 650 0
57 650 0
-169 -35 -64 -63 -62 -58 -57 -650 0
35 651 0
64 651 0
63 651 0
62 651 0
58 651 0
57 651 0
-35 -64 -63 -62 -58 -57 -651 0
169 652 0
-651 652 0
-169 651 -652 0
-652 650 0
652 -650 0
135 653 0
-7 653 0
40 653 0
39 653 0
38 653 0
37 653 0
33 653 0
-135 7 -40 -39 -38 -37 -33 -653 0
-7 654 0
40 654 0
39 654 0
38 654 0
37 654 0
33 654 0
7 -40 -39 -38 -37 -33 -654 0
135 655 0
-654 655 0
-135 654 -655 0
-655 653 0
655 -653 0
130 656 0
-7 656 0
-33 656 0
-130 7 33 -656 0
-7 657 0
-33 657 0
7 33 -657 0
130 658 0
-657 658 0
-130 657 -658 0
-658 656 0
658 -656 0
132 659 0
-7 659 0
-38 659 0
-132 7 38 -659 0
-7 660 0
-38 660 0
7 38 -660 0
132 661 0
-660 661 0
-132 660 -661 0
-661 659 0
661 -659 0
133 662 0
-7 662 0
-39 662 0
-133 7 39 -662 0
-7 663 0
-39 663 0
7 39 -663 0
133 664 0
-663 664 0
-133 663 -664 0
-664 662 0
664 -662 0
134 665 0
-7 665 0
-40 665 0
-134 7 40 -665 0
-7 666 0
-40 666 0
7 40 -666 0
134 667 0
-666 667 0
-134 666 -667 0
-667 665 0
667 -665 0
168 668 0
-34 668 0
64 668 0
63 668 0
62 668 0
58 668 0
57 668 0
-168 34 -64 -63 -62 -58 -57 -668 0
-34 669 0
64 669 0
63 669 0
62 669 0
58 669 0
57 669 0
34 -64 -63 -62 -58 -57 -669 0
168 670 0
-669 670 0
-168 669 -670 0
-670 668 0
670 -668 0
